N = 8;
H = 6;
T = 2;

avail = array3d(1..N, 1..H, 1..T, [6, 10, 8, 2, 10, 3, 7, 2, 4, 10, 8, 5, 6, 4, 9, 7, 1, 1, 2, 2, 1, 9, 10, 4, 1, 6, 4, 10, 4, 1, 3, 2, 7, 8, 6, 0, 1, 0, 10, 5, 6, 8, 9, 9, 0, 3, 3, 3, 10, 2, 8, 10, 6, 4, 3, 5, 10, 2, 2, 5, 4, 9, 3, 8, 1, 10, 8, 2, 6, 2, 4, 9, 6, 9, 7, 5, 2, 6, 10, 1, 4, 8, 10, 6, 7, 10, 10, 4, 6, 10, 4, 10, 2, 4, 10, 6]);

r = array2d(1..H, 1..T, [2, 2, 3, 3, 3, 3, 2, 2, 4, 3, 1, 3]);
